c description: Graph 1-Colorability of <cnfgen.graphs.Graph object at 0x0000028D92539AF0>
c generator: CNFgen (0.9.2)
c copyright: (C) 2012-2022 Massimo Lauria <massimo.lauria@uniroma1.it>
c url: https://massimolauria.net/cnfgen
c command line: cnfgen -o kcolor_1c_grid2x2.cnf kcolor 1 grid 2 2
c
p cnf 4 8
1 0
2 0
3 0
4 0
-1 -2 0
-1 -3 0
-2 -4 0
-3 -4 0
